c File: flat50_3_0.col
c
c SOURCE: Joseph Culberson (joe@cs.ualberta.ca)
c DESCRIPTION: Quasi-random coloring problem
c              generated with flatness = 0
c                             probability = 0.139
c                             known coloring = 3
c                             random seed = 1141
c              Creation Date:  Tue Jun  9 12:02:09 1998
c Maximum degree = 8 Minimum degree = 2
c p edge 50 115
c cnf created by edge2cnf
p cnf 150 545
-1 -2 0
-1 -3 0
-2 -3 0
1 2 3 0
-4 -5 0
-4 -6 0
-5 -6 0
4 5 6 0
-7 -8 0
-7 -9 0
-8 -9 0
7 8 9 0
-10 -11 0
-10 -12 0
-11 -12 0
10 11 12 0
-13 -14 0
-13 -15 0
-14 -15 0
13 14 15 0
-16 -17 0
-16 -18 0
-17 -18 0
16 17 18 0
-19 -20 0
-19 -21 0
-20 -21 0
19 20 21 0
-22 -23 0
-22 -24 0
-23 -24 0
22 23 24 0
-25 -26 0
-25 -27 0
-26 -27 0
25 26 27 0
-28 -29 0
-28 -30 0
-29 -30 0
28 29 30 0
-31 -32 0
-31 -33 0
-32 -33 0
31 32 33 0
-34 -35 0
-34 -36 0
-35 -36 0
34 35 36 0
-37 -38 0
-37 -39 0
-38 -39 0
37 38 39 0
-40 -41 0
-40 -42 0
-41 -42 0
40 41 42 0
-43 -44 0
-43 -45 0
-44 -45 0
43 44 45 0
-46 -47 0
-46 -48 0
-47 -48 0
46 47 48 0
-49 -50 0
-49 -51 0
-50 -51 0
49 50 51 0
-52 -53 0
-52 -54 0
-53 -54 0
52 53 54 0
-55 -56 0
-55 -57 0
-56 -57 0
55 56 57 0
-58 -59 0
-58 -60 0
-59 -60 0
58 59 60 0
-61 -62 0
-61 -63 0
-62 -63 0
61 62 63 0
-64 -65 0
-64 -66 0
-65 -66 0
64 65 66 0
-67 -68 0
-67 -69 0
-68 -69 0
67 68 69 0
-70 -71 0
-70 -72 0
-71 -72 0
70 71 72 0
-73 -74 0
-73 -75 0
-74 -75 0
73 74 75 0
-76 -77 0
-76 -78 0
-77 -78 0
76 77 78 0
-79 -80 0
-79 -81 0
-80 -81 0
79 80 81 0
-82 -83 0
-82 -84 0
-83 -84 0
82 83 84 0
-85 -86 0
-85 -87 0
-86 -87 0
85 86 87 0
-88 -89 0
-88 -90 0
-89 -90 0
88 89 90 0
-91 -92 0
-91 -93 0
-92 -93 0
91 92 93 0
-94 -95 0
-94 -96 0
-95 -96 0
94 95 96 0
-97 -98 0
-97 -99 0
-98 -99 0
97 98 99 0
-100 -101 0
-100 -102 0
-101 -102 0
100 101 102 0
-103 -104 0
-103 -105 0
-104 -105 0
103 104 105 0
-106 -107 0
-106 -108 0
-107 -108 0
106 107 108 0
-109 -110 0
-109 -111 0
-110 -111 0
109 110 111 0
-112 -113 0
-112 -114 0
-113 -114 0
112 113 114 0
-115 -116 0
-115 -117 0
-116 -117 0
115 116 117 0
-118 -119 0
-118 -120 0
-119 -120 0
118 119 120 0
-121 -122 0
-121 -123 0
-122 -123 0
121 122 123 0
-124 -125 0
-124 -126 0
-125 -126 0
124 125 126 0
-127 -128 0
-127 -129 0
-128 -129 0
127 128 129 0
-130 -131 0
-130 -132 0
-131 -132 0
130 131 132 0
-133 -134 0
-133 -135 0
-134 -135 0
133 134 135 0
-136 -137 0
-136 -138 0
-137 -138 0
136 137 138 0
-139 -140 0
-139 -141 0
-140 -141 0
139 140 141 0
-142 -143 0
-142 -144 0
-143 -144 0
142 143 144 0
-145 -146 0
-145 -147 0
-146 -147 0
145 146 147 0
-148 -149 0
-148 -150 0
-149 -150 0
148 149 150 0
-67 -1 0
-68 -2 0
-69 -3 0
-76 -1 0
-77 -2 0
-78 -3 0
-106 -1 0
-107 -2 0
-108 -3 0
-133 -1 0
-134 -2 0
-135 -3 0
-145 -1 0
-146 -2 0
-147 -3 0
-52 -4 0
-53 -5 0
-54 -6 0
-64 -4 0
-65 -5 0
-66 -6 0
-70 -7 0
-71 -8 0
-72 -9 0
-85 -7 0
-86 -8 0
-87 -9 0
-88 -7 0
-89 -8 0
-90 -9 0
-142 -7 0
-143 -8 0
-144 -9 0
-97 -10 0
-98 -11 0
-99 -12 0
-100 -10 0
-101 -11 0
-102 -12 0
-109 -10 0
-110 -11 0
-111 -12 0
-121 -10 0
-122 -11 0
-123 -12 0
-124 -10 0
-125 -11 0
-126 -12 0
-64 -13 0
-65 -14 0
-66 -15 0
-112 -13 0
-113 -14 0
-114 -15 0
-118 -13 0
-119 -14 0
-120 -15 0
-145 -13 0
-146 -14 0
-147 -15 0
-148 -13 0
-149 -14 0
-150 -15 0
-82 -16 0
-83 -17 0
-84 -18 0
-85 -16 0
-86 -17 0
-87 -18 0
-118 -16 0
-119 -17 0
-120 -18 0
-121 -16 0
-122 -17 0
-123 -18 0
-130 -16 0
-131 -17 0
-132 -18 0
-148 -16 0
-149 -17 0
-150 -18 0
-85 -19 0
-86 -20 0
-87 -21 0
-94 -19 0
-95 -20 0
-96 -21 0
-112 -19 0
-113 -20 0
-114 -21 0
-115 -19 0
-116 -20 0
-117 -21 0
-145 -19 0
-146 -20 0
-147 -21 0
-97 -22 0
-98 -23 0
-99 -24 0
-103 -22 0
-104 -23 0
-105 -24 0
-109 -22 0
-110 -23 0
-111 -24 0
-130 -22 0
-131 -23 0
-132 -24 0
-52 -25 0
-53 -26 0
-54 -27 0
-61 -25 0
-62 -26 0
-63 -27 0
-76 -25 0
-77 -26 0
-78 -27 0
-112 -25 0
-113 -26 0
-114 -27 0
-115 -25 0
-116 -26 0
-117 -27 0
-67 -28 0
-68 -29 0
-69 -30 0
-73 -28 0
-74 -29 0
-75 -30 0
-76 -28 0
-77 -29 0
-78 -30 0
-85 -28 0
-86 -29 0
-87 -30 0
-127 -28 0
-128 -29 0
-129 -30 0
-139 -28 0
-140 -29 0
-141 -30 0
-52 -31 0
-53 -32 0
-54 -33 0
-100 -31 0
-101 -32 0
-102 -33 0
-115 -31 0
-116 -32 0
-117 -33 0
-139 -31 0
-140 -32 0
-141 -33 0
-52 -34 0
-53 -35 0
-54 -36 0
-67 -34 0
-68 -35 0
-69 -36 0
-73 -34 0
-74 -35 0
-75 -36 0
-145 -34 0
-146 -35 0
-147 -36 0
-70 -37 0
-71 -38 0
-72 -39 0
-100 -37 0
-101 -38 0
-102 -39 0
-139 -37 0
-140 -38 0
-141 -39 0
-76 -40 0
-77 -41 0
-78 -42 0
-97 -40 0
-98 -41 0
-99 -42 0
-130 -40 0
-131 -41 0
-132 -42 0
-58 -43 0
-59 -44 0
-60 -45 0
-73 -43 0
-74 -44 0
-75 -45 0
-88 -43 0
-89 -44 0
-90 -45 0
-97 -43 0
-98 -44 0
-99 -45 0
-103 -43 0
-104 -44 0
-105 -45 0
-109 -43 0
-110 -44 0
-111 -45 0
-58 -46 0
-59 -47 0
-60 -48 0
-109 -46 0
-110 -47 0
-111 -48 0
-115 -46 0
-116 -47 0
-117 -48 0
-130 -46 0
-131 -47 0
-132 -48 0
-61 -49 0
-62 -50 0
-63 -51 0
-67 -49 0
-68 -50 0
-69 -51 0
-70 -49 0
-71 -50 0
-72 -51 0
-82 -49 0
-83 -50 0
-84 -51 0
-112 -49 0
-113 -50 0
-114 -51 0
-121 -49 0
-122 -50 0
-123 -51 0
-136 -49 0
-137 -50 0
-138 -51 0
-121 -52 0
-122 -53 0
-123 -54 0
-139 -52 0
-140 -53 0
-141 -54 0
-142 -52 0
-143 -53 0
-144 -54 0
-118 -55 0
-119 -56 0
-120 -57 0
-127 -55 0
-128 -56 0
-129 -57 0
-148 -55 0
-149 -56 0
-150 -57 0
-109 -58 0
-110 -59 0
-111 -60 0
-145 -58 0
-146 -59 0
-147 -60 0
-115 -61 0
-116 -62 0
-117 -63 0
-133 -61 0
-134 -62 0
-135 -63 0
-121 -70 0
-122 -71 0
-123 -72 0
-139 -70 0
-140 -71 0
-141 -72 0
-103 -73 0
-104 -74 0
-105 -75 0
-124 -73 0
-125 -74 0
-126 -75 0
-130 -76 0
-131 -77 0
-132 -78 0
-136 -76 0
-137 -77 0
-138 -78 0
-109 -79 0
-110 -80 0
-111 -81 0
-133 -79 0
-134 -80 0
-135 -81 0
-112 -82 0
-113 -83 0
-114 -84 0
-118 -82 0
-119 -83 0
-120 -84 0
-103 -85 0
-104 -86 0
-105 -87 0
-115 -85 0
-116 -86 0
-117 -87 0
-145 -85 0
-146 -86 0
-147 -87 0
-148 -85 0
-149 -86 0
-150 -87 0
-103 -88 0
-104 -89 0
-105 -90 0
-139 -88 0
-140 -89 0
-141 -90 0
-145 -88 0
-146 -89 0
-147 -90 0
-118 -91 0
-119 -92 0
-120 -93 0
-124 -91 0
-125 -92 0
-126 -93 0
-148 -91 0
-149 -92 0
-150 -93 0
-103 -94 0
-104 -95 0
-105 -96 0
-109 -94 0
-110 -95 0
-111 -96 0
-118 -94 0
-119 -95 0
-120 -96 0
-106 -100 0
-107 -101 0
-108 -102 0
-133 -100 0
-134 -101 0
-135 -102 0
-142 -100 0
-143 -101 0
-144 -102 0
-145 -100 0
-146 -101 0
-147 -102 0
